============================[ Problem Statistics ]=============================|                                                                             ||  Number of variables:          4242                                         ||  Number of clauses:            9634                                         ||  Parse time:                   0.04 s                                       ||                                                                             |============================[ Search Statistics ]==============================| Conflicts |          ORIGINAL         |          LEARNT          | Progress ||           |    Vars  Clauses Literals |    Limit  Clauses Lit/Cl |          |==============================================================================================================================================================restarts              : 1conflicts             : 27             (509 /sec)decisions             : 112            (0.00 % random) (2113 /sec)propagations          : 8060           (152075 /sec)conflict literals     : 734            (95.41 % deleted)CPU time              : 0.053 sSATISFIABLE